# Solution for model r3_t9_m6_8
# Finished Task: 9 / 9
# Makespan: 552.0, Total Distance: 224.0, Total Time: 0.4784
# R O S F
0 0 -1 14.0 14.0
1 1 4 110.0 110.0
2 2 3 86.0 86.0
3 2 10 186.0 225.0
4 1 7 225.0 264.0
5 2 11 423.0 456.0
6 1 -1 529.0 552.0
7 1 9 299.0 330.0
8 2 5 383.0 416.0
9 1 6 350.0 383.0
10 2 8 264.0 299.0
11 2 -1 493.0 529.0
